7326
4066
4714
3063
4522
9631
9580
8531
10194
9114
3373
8280
8481
5018
5601
2028
4474
9750
6436
8659
6559
9569
1141
9996
8645
1640
3408
5758
1168
8244
2251
5273
5716
5371
2713
4166
5585
493
2824
3339
4595
5719
2464
2615
4996
9061
7192
9354
3672
5088
